&control
   calculation = 'bands'
   restart_mode = 'from_scratch'
   wf_collect = .true.
   outdir = './_scratch'
   pseudo_dir = './'
/
&system
   ibrav = 0
   celldm(1) = 10.2612
   nat = 2
   ntyp = 1
   nbnd = 4
   ecutwfc = 40.0
   ecutrho = 200.0
/
&electrons
   electron_maxstep = 100
   conv_thr = 1.0d-10
   mixing_mode = 'plain'
   mixing_beta = 0.7
   mixing_ndim = 8
   diagonalization = 'david'
   diago_david_ndim = 4
   diago_full_acc = .true.
/
CELL_PARAMETERS
       0.000000000   0.500000000   0.500000000
       0.500000000   0.000000000   0.500000000
       0.500000000   0.500000000   0.000000000
ATOMIC_SPECIES
  Si  28.086  Si.UPF
ATOMIC_POSITIONS crystal
  Si  -0.125000000  -0.125000000  -0.125000000
  Si   0.125000000   0.125000000   0.125000000
K_POINTS crystal
64
  0.00000000  0.00000000  0.00000000  1.562500e-02 
  0.00000000  0.00000000  0.25000000  1.562500e-02 
  0.00000000  0.00000000  0.50000000  1.562500e-02 
  0.00000000  0.00000000  0.75000000  1.562500e-02 
  0.00000000  0.25000000  0.00000000  1.562500e-02 
  0.00000000  0.25000000  0.25000000  1.562500e-02 
  0.00000000  0.25000000  0.50000000  1.562500e-02 
  0.00000000  0.25000000  0.75000000  1.562500e-02 
  0.00000000  0.50000000  0.00000000  1.562500e-02 
  0.00000000  0.50000000  0.25000000  1.562500e-02 
  0.00000000  0.50000000  0.50000000  1.562500e-02 
  0.00000000  0.50000000  0.75000000  1.562500e-02 
  0.00000000  0.75000000  0.00000000  1.562500e-02 
  0.00000000  0.75000000  0.25000000  1.562500e-02 
  0.00000000  0.75000000  0.50000000  1.562500e-02 
  0.00000000  0.75000000  0.75000000  1.562500e-02 
  0.25000000  0.00000000  0.00000000  1.562500e-02 
  0.25000000  0.00000000  0.25000000  1.562500e-02 
  0.25000000  0.00000000  0.50000000  1.562500e-02 
  0.25000000  0.00000000  0.75000000  1.562500e-02 
  0.25000000  0.25000000  0.00000000  1.562500e-02 
  0.25000000  0.25000000  0.25000000  1.562500e-02 
  0.25000000  0.25000000  0.50000000  1.562500e-02 
  0.25000000  0.25000000  0.75000000  1.562500e-02 
  0.25000000  0.50000000  0.00000000  1.562500e-02 
  0.25000000  0.50000000  0.25000000  1.562500e-02 
  0.25000000  0.50000000  0.50000000  1.562500e-02 
  0.25000000  0.50000000  0.75000000  1.562500e-02 
  0.25000000  0.75000000  0.00000000  1.562500e-02 
  0.25000000  0.75000000  0.25000000  1.562500e-02 
  0.25000000  0.75000000  0.50000000  1.562500e-02 
  0.25000000  0.75000000  0.75000000  1.562500e-02 
  0.50000000  0.00000000  0.00000000  1.562500e-02 
  0.50000000  0.00000000  0.25000000  1.562500e-02 
  0.50000000  0.00000000  0.50000000  1.562500e-02 
  0.50000000  0.00000000  0.75000000  1.562500e-02 
  0.50000000  0.25000000  0.00000000  1.562500e-02 
  0.50000000  0.25000000  0.25000000  1.562500e-02 
  0.50000000  0.25000000  0.50000000  1.562500e-02 
  0.50000000  0.25000000  0.75000000  1.562500e-02 
  0.50000000  0.50000000  0.00000000  1.562500e-02 
  0.50000000  0.50000000  0.25000000  1.562500e-02 
  0.50000000  0.50000000  0.50000000  1.562500e-02 
  0.50000000  0.50000000  0.75000000  1.562500e-02 
  0.50000000  0.75000000  0.00000000  1.562500e-02 
  0.50000000  0.75000000  0.25000000  1.562500e-02 
  0.50000000  0.75000000  0.50000000  1.562500e-02 
  0.50000000  0.75000000  0.75000000  1.562500e-02 
  0.75000000  0.00000000  0.00000000  1.562500e-02 
  0.75000000  0.00000000  0.25000000  1.562500e-02 
  0.75000000  0.00000000  0.50000000  1.562500e-02 
  0.75000000  0.00000000  0.75000000  1.562500e-02 
  0.75000000  0.25000000  0.00000000  1.562500e-02 
  0.75000000  0.25000000  0.25000000  1.562500e-02 
  0.75000000  0.25000000  0.50000000  1.562500e-02 
  0.75000000  0.25000000  0.75000000  1.562500e-02 
  0.75000000  0.50000000  0.00000000  1.562500e-02 
  0.75000000  0.50000000  0.25000000  1.562500e-02 
  0.75000000  0.50000000  0.50000000  1.562500e-02 
  0.75000000  0.50000000  0.75000000  1.562500e-02 
  0.75000000  0.75000000  0.00000000  1.562500e-02 
  0.75000000  0.75000000  0.25000000  1.562500e-02 
  0.75000000  0.75000000  0.50000000  1.562500e-02 
  0.75000000  0.75000000  0.75000000  1.562500e-02 
